! Generated by hand 
 $BASIS EXTFIL=.T. GBASIS=XPOL $END 
 $CONTRL SCFTYP=RHF 
 RUNTYP=TDHFX $END
 $SCF DIRSCF=.TRUE. NCONV=11 $END
 $TDHFX 
 CONV 1.0E-11
 ALPHA 0.00
 ALPHA 0.02
 ALPHA 0.04
 ALPHA 0.06
 ALPHA 0.08
 ALPHA 0.10
 ALPHA 0.12
 $END   
 $SYSTEM MWORDS=125 $END
 $DATA
 CH4
C1
CARBON      6.0      0.000000000         0.000000000        -0.000000001
HYDROGEN    1.0     -0.629315387         0.629315387        -0.629315383
HYDROGEN    1.0     -0.629315383        -0.629315383         0.629315388
HYDROGEN    1.0      0.629315383         0.629315383         0.629315388
HYDROGEN    1.0      0.629315387        -0.629315387        -0.629315383
 $END

    
