!   File created by MacMolPlt 7.6.2
 $CONTRL SCFTYP=RHF RUNTYP=HESSIAN MAXIT=200 MULT=1 NOSYM=1 $END
 $SYSTEM TIMLIM=525600 MEMORY=3276800 $END
 $BASIS GBASIS=N31 NGAUSS=6 NDFUNC=1 DIFFSP=.TRUE. DIFFS=.TRUE. $END
 $SCF DIRSCF=.TRUE. $END
 $FORCE METHOD=ANALYTIC VIBANL=.TRUE. 
! This line is too long, so it is cutted
 TEMP(1)=293.15,400.0,800.0,1200.0,1600.0,2000.0 SCLFAC=0.895 $END
 $DATA 
Title
C1
C     6.0    -0.63088     0.46264    -0.00000
H     1.0    -0.63088     1.60264    -0.00000
H     1.0    -0.63088     0.08264     1.07480
H     1.0     0.29993     0.08264    -0.53740
H     1.0    -1.56169     0.08264    -0.53740
 $END
